[673, 698, 683, 653, 657, 681, 672, 671, 673, 657, 1338, 1329, 1350, 1370, 1364, 1311, 1313, 1329, 1335, 1357, 2635, 2663, 2650, 2662, 2642, 2701, 2617, 2699, 2665, 2677, 5336, 5382, 5338, 5312, 5418, 5357, 5366, 5309, 5320, 5314, 10652, 10636, 10675, 10561, 10592, 10585, 10663, 10653, 10680, 10623]
